c WARNING: for repeatability, setting FPU to use double precision
d VARIABLES            61128        
d CONSTRAINTS          262365       
c ============================[ Problem Statistics ]=============================
c |                                                                             |
c |  Number of variables:         61128                                         |
c |  Number of clauses:          262365                                         |
c |  Parse time:                   0.04 s                                       |
c |                                                                             |
c ============================[ Search Statistics ]==============================
c | Conflicts |          ORIGINAL         |          LEARNT          | Progress |
c |           |    Vars  Clauses Literals |    Limit  Clauses Lit/Cl |          |
c ===============================================================================
c |       100 |   49344   228877   556186 |    83921      100      8 | 19.278 % |
c |       250 |   49344   228877   556186 |    92313      250     26 | 19.278 % |
c |       475 |   49344   228877   556186 |   101545      475     62 | 19.278 % |
c |       812 |   49344   228877   556186 |   111699      812     67 | 19.278 % |
c |      1318 |   49344   228877   556186 |   122869     1318     99 | 19.278 % |
c |      2077 |   49344   228877   556186 |   135156     2077     96 | 19.278 % |
c |      3216 |   49344   228877   556186 |   148672     3216    132 | 19.278 % |
c |      4924 |   49344   228877   556186 |   163539     4924    121 | 19.278 % |
c |      7486 |   49344   228877   556186 |   179893     7486    132 | 19.278 % |
c |     11330 |   49344   228877   556186 |   197882    11330    136 | 19.278 % |
c |     17096 |   49344   228877   556186 |   217670    17096    135 | 19.278 % |
c |     25745 |   49344   228877   556186 |   239438    25745    146 | 19.278 % |
c |     38719 |   49344   228877   556186 |   263381    38719    152 | 19.278 % |
c |     58180 |   49344   228877   556186 |   289720    58180    143 | 19.278 % |
c |     87372 |   49337   228843   556104 |   318692    87371    154 | 19.289 % |
c |    131161 |   49337   228843   556104 |   350561   131160    175 | 19.289 % |
c |    196845 |   49337   228843   556104 |   385617   196844    172 | 19.289 % |
c |    295371 |   49337   228843   556104 |   424179   295370    191 | 19.289 % |
c |    443160 |   49337   228843   556104 |   466596    30833    176 | 19.289 % |
c |    664843 |   49337   228843   556104 |   513256   252516    208 | 19.289 % |
c |    997368 |   49337   228843   556104 |   564582    73213    246 | 19.289 % |
c |   1496156 |   49337   228843   556104 |   621040   572001    174 | 19.289 % |
c |   2244338 |   49337   228843   556104 |   683144    95207    180 | 19.289 % |
c ===============================================================================
c restarts              : 5838
c conflicts             : 3273734        (1825 /sec)
c decisions             : 8588648        (0.00 % random) (4789 /sec)
c propagations          : 3886309320     (2166832 /sec)
c conflict literals     : 565171068      (33.20 % deleted)
d RESTARTS             5838
d FAILURES             3273734      
d NODES                8588648      
d BACKTRACKS           8588648      
d PROPAGATIONS         3886309320   
d NOGOODSIZE           172.64 
d MEMORY               697.00 
d TIME                 1793.54 

s UNKNOWN
